c preprocessed version of NonisotropicUnitaryPolarGraph_3_3, 63 vertices, 1008 edges
p td 63 1008
0 1
0 3
0 6
0 7
0 8
0 10
0 12
0 14
0 15
0 18
0 20
0 22
0 23
0 28
0 29
0 30
0 33
0 34
0 37
0 39
0 43
0 45
0 46
0 47
0 48
0 51
0 53
0 55
0 56
0 57
0 58
0 61
1 2
1 4
1 5
1 7
1 8
1 12
1 15
1 16
1 19
1 20
1 21
1 23
1 26
1 29
1 33
1 34
1 35
1 37
1 38
1 39
1 40
1 43
1 44
1 45
1 49
1 57
1 58
1 59
1 60
1 61
1 62
2 4
2 5
2 6
2 7
2 10
2 11
2 16
2 17
2 20
2 26
2 27
2 28
2 29
2 31
2 32
2 33
2 35
2 36
2 41
2 43
2 46
2 48
2 51
2 52
2 58
2 59
3 6
3 8
3 11
3 14
3 15
3 16
3 18
3 19
3 20
3 21
3 24
3 25
3 27
3 28
3 29
3 31
3 32
3 33
3 35
3 38
3 41
3 44
3 52
3 53
3 54
3 55
3 57
4 7
4 11
4 13
4 14
4 15
4 16
4 17
4 19
4 21
4 24
4 25
4 26
4 28
4 29
4 30
4 31
4 32
4 33
4 35
4 39
4 42
4 47
4 48
4 53
4 55
4 58
5 6
5 7
5 8
5 11
5 17
5 18
5 21
5 22
5 27
5 30
5 35
5 36
5 38
5 39
5 40
5 41
5 42
5 44
5 48
5 52
5 53
5 54
5 57
5 58
5 59
6 7
6 8
6 9
6 11
6 13
6 19
6 24
6 26
6 27
6 28
6 33
6 37
6 40
6 41
6 42
6 46
6 47
6 48
6 53
6 54
6 55
6 57
6 58
6 59
7 11
7 13
7 14
7 17
7 18
7 19
7 20
7 21
7 24
7 26
7 28
7 30
7 36
7 37
7 38
7 39
7 41
7 48
7 49
7 51
7 55
7 59
8 11
8 13
8 15
8 16
8 18
8 19
8 20
8 21
8 22
8 25
8 26
8 27
8 29
8 30
8 37
8 38
8 40
8 46
8 47
8 48
8 51
8 52
8 54
9 10
9 11
9 13
9 16
9 19
9 21
9 22
9 24
9 25
9 26
9 30
9 32
9 35
9 37
9 40
9 41
9 42
9 43
9 46
9 49
9 50
9 51
9 53
9 57
9 58
10 13
10 14
10 17
10 18
10 20
10 25
10 26
10 30
10 31
10 33
10 38
10 41
10 42
10 43
10 44
10 47
10 48
10 50
10 51
10 52
10 57
10 58
11 15
11 16
11 18
11 19
11 20
11 21
11 25
11 31
11 35
11 37
11 41
11 42
11 43
11 47
11 48
11 50
11 51
11 52
11 53
11 55
11 59
12 4
12 5
12 7
12 9
12 11
12 13
12 15
12 16
12 20
12 22
12 23
12 30
12 31
12 32
12 34
12 36
12 37
12 39
12 42
12 44
12 47
12 49
12 52
12 53
12 54
12 55
12 56
12 58
12 61
12 62
13 14
13 16
13 17
13 19
13 20
13 21
13 22
13 26
13 27
13 28
13 30
13 32
13 33
13 37
13 38
13 42
13 44
13 47
13 48
13 49
13 50
13 54
14 15
14 17
14 18
14 19
14 21
14 22
14 25
14 28
14 30
14 31
14 32
14 33
14 35
14 36
14 37
14 38
14 40
14 41
14 43
14 47
14 54
14 58
14 59
15 19
15 22
15 29
15 30
15 31
15 32
15 35
15 38
15 41
15 42
15 43
15 44
15 46
15 47
15 48
15 49
15 51
15 54
15 55
15 57
15 59
16 17
16 18
16 19
16 20
16 22
16 25
16 26
16 29
16 32
16 33
16 35
16 46
16 49
16 50
16 52
16 54
16 55
16 58
16 59
17 18
17 19
17 21
17 22
17 27
17 28
17 30
17 31
17 35
17 39
17 42
17 46
17 50
17 51
17 52
17 54
17 55
17 57
17 59
18 19
18 20
18 22
18 24
18 25
18 26
18 27
18 35
18 36
18 38
18 39
18 42
18 43
18 47
18 49
18 51
18 52
18 55
18 57
18 58
19 20
19 21
19 24
19 25
19 28
19 30
19 40
19 42
19 43
19 44
19 46
19 49
19 52
19 57
19 58
19 59
20 25
20 27
20 28
20 32
20 33
20 36
20 37
20 38
20 39
20 42
20 43
20 44
20 46
20 48
20 50
20 52
21 24
21 27
21 28
21 29
21 30
21 31
21 35
21 37
21 38
21 40
21 43
21 44
21 50
21 51
21 53
22 25
22 27
22 29
22 30
22 31
22 32
22 33
22 35
22 36
22 37
22 39
22 40
22 42
22 46
22 48
22 49
22 51
22 57
22 59
23 2
23 3
23 5
23 6
23 8
23 9
23 10
23 13
23 16
23 17
23 21
23 22
23 28
23 31
23 32
23 33
23 38
23 40
23 45
23 49
23 51
23 52
23 53
23 55
23 56
23 57
23 60
23 61
23 62
24 25
24 26
24 27
24 29
24 31
24 32
24 36
24 38
24 39
24 40
24 42
24 44
24 46
24 48
24 49
24 51
24 53
24 55
24 58
25 26
25 30
25 31
25 32
25 33
25 36
25 37
25 39
25 40
25 41
25 48
25 52
25 53
25 57
25 59
26 27
26 29
26 30
26 33
26 35
26 36
26 37
26 38
26 41
26 47
26 49
26 51
26 54
26 55
26 57
26 58
27 28
27 29
27 31
27 32
27 35
27 36
27 37
27 39
27 42
27 43
27 44
27 46
27 47
27 54
27 57
28 29
28 30
28 32
28 33
28 36
28 39
28 40
28 41
28 43
28 46
28 47
28 49
28 50
28 52
28 53
28 55
28 57
29 30
29 31
29 33
29 35
29 39
29 40
29 41
29 44
29 46
29 47
29 48
29 49
29 50
29 51
29 52
29 58
30 36
30 41
30 44
30 46
30 48
30 51
30 52
30 53
30 54
30 57
30 58
31 33
31 36
31 37
31 40
31 42
31 44
31 47
31 51
31 52
31 55
31 59
32 35
32 36
32 38
32 39
32 41
32 43
32 46
32 48
32 49
32 53
32 54
33 35
33 36
33 37
33 38
33 40
33 42
33 44
33 48
33 50
33 53
33 55
33 57
33 58
33 59
34 3
34 7
34 9
34 10
34 16
34 17
34 20
34 21
34 24
34 25
34 26
34 27
34 29
34 30
34 31
34 37
34 39
34 41
34 44
34 45
34 46
34 50
34 54
34 55
34 56
34 57
34 59
34 61
34 62
35 37
35 38
35 39
35 41
35 42
35 43
35 50
35 51
35 53
35 54
35 57
35 58
36 37
36 38
36 40
36 43
36 44
36 46
36 49
36 51
36 52
36 53
36 54
36 55
36 58
36 59
37 39
37 40
37 43
37 47
37 50
37 51
37 53
37 54
37 59
38 40
38 41
38 42
38 44
38 48
38 49
38 50
38 51
38 54
38 55
39 40
39 41
39 42
39 47
39 48
39 49
39 50
39 52
39 53
39 57
40 41
40 42
40 46
40 47
40 49
40 50
40 52
40 58
40 59
41 47
41 48
41 49
41 50
41 52
41 54
41 57
41 59
42 44
42 46
42 47
42 48
42 50
42 55
42 57
42 58
43 44
43 46
43 47
43 49
43 50
43 51
43 53
43 57
43 58
43 59
44 48
44 49
44 50
44 52
44 53
44 54
44 57
44 58
44 59
45 4
45 5
45 8
45 10
45 14
45 16
45 17
45 18
45 21
45 24
45 25
45 32
45 38
45 39
45 40
45 43
45 46
45 47
45 48
45 50
45 53
45 54
45 55
45 56
45 58
45 59
45 60
45 62
46 48
46 50
46 51
46 54
46 55
46 58
46 59
47 49
47 50
47 52
47 54
47 55
47 58
48 50
48 51
48 53
48 59
49 50
49 51
49 52
49 55
49 57
49 59
50 51
50 52
50 53
50 54
50 55
50 59
51 52
51 53
51 55
52 53
52 54
52 58
53 54
53 55
53 57
53 58
54 55
54 58
54 59
55 57
55 59
56 2
56 3
56 5
56 6
56 7
56 9
56 10
56 11
56 13
56 14
56 16
56 18
56 21
56 22
56 24
56 27
56 29
56 31
56 32
56 41
56 43
56 44
56 47
56 48
56 49
56 58
56 59
57 59
60 2
60 4
60 6
60 8
60 10
60 13
60 15
60 17
60 19
60 24
60 25
60 26
60 27
60 31
60 32
60 37
60 39
60 43
60 44
60 47
60 48
60 49
60 51
60 52
60 53
60 54
60 57
60 59
60 61
61 2
61 3
61 6
61 7
61 9
61 10
61 14
61 15
61 17
61 19
61 20
61 24
61 31
61 32
61 35
61 37
61 38
61 39
61 40
61 41
61 42
61 46
61 51
61 52
61 54
61 58
62 2
62 4
62 5
62 8
62 9
62 10
62 11
62 15
62 20
62 21
62 25
62 26
62 27
62 28
62 30
62 31
62 32
62 36
62 38
62 40
62 41
62 42
62 43
62 46
62 47
62 55
62 57
